HmaxDs = 0.500000
HmaxUB_percent = 1.121549
HmaxUB_real = 2353.078144
FTnetDs = 0.500000
FTnetUB_percent = 2.079033
FTnetUB_real = 2990.501858
TIFgap = 0.300000
LimCIPF = 60.6129069
SCIP version 1.1.0 [precision: 8 byte] [memory: block] [mode: optimized] [LP solver: Clp 1.8.2]
Copyright (c) 2002-2008 Konrad-Zuse-Zentrum fuer Informationstechnik Berlin (ZIB)

reading user parameter file </home/fabio/docs/hierarquia/models/scip.set>

read problem <data.N30.I1.s1.cluster5.T4.GL2.W3.TIFgap0.3.mps.gz>
============

original problem has 227 variables (114 bin, 0 int, 0 impl, 113 cont) and 115 constraints

solve problem
=============

presolving:
(round 1) 3 del vars, 3 del conss, 22 chg bounds, 0 chg sides, 27 chg coeffs, 0 upgd conss, 0 impls, 36 clqs
(round 2) 5 del vars, 3 del conss, 22 chg bounds, 1 chg sides, 27 chg coeffs, 0 upgd conss, 0 impls, 36 clqs
(round 3) 5 del vars, 3 del conss, 22 chg bounds, 3 chg sides, 27 chg coeffs, 0 upgd conss, 0 impls, 36 clqs
(round 4) 5 del vars, 4 del conss, 22 chg bounds, 3 chg sides, 27 chg coeffs, 37 upgd conss, 0 impls, 36 clqs
(round 5) 43 del vars, 4 del conss, 31 chg bounds, 3 chg sides, 27 chg coeffs, 37 upgd conss, 291 impls, 24 clqs
(round 6) 43 del vars, 16 del conss, 31 chg bounds, 4 chg sides, 28 chg coeffs, 37 upgd conss, 291 impls, 24 clqs
presolving (7 rounds):
 43 deleted vars, 16 deleted constraints, 31 tightened bounds, 0 added holes, 4 changed sides, 28 changed coefficients
 291 implications, 24 cliques
presolved problem has 184 variables (76 bin, 0 int, 0 impl, 108 cont) and 99 constraints
      1 constraints of type <knapsack>
     24 constraints of type <setppc>
     74 constraints of type <linear>
Presolving Time: 0.03

 time | node  | left  |LP iter| mem |mdpt |frac |vars |cons |ccons|cols |rows |cuts |confs|strbr|  dualbound   | primalbound  |  gap   
  0.0s|     1 |     0 |    96 | 608k|   0 |  35 | 184 |  99 |  99 | 184 |  99 |   0 |   0 |   0 | 2.268832e+01 |      --      |    Inf 
  0.1s|     1 |     0 |   516 | 657k|   0 |  37 | 184 |  99 |  99 | 184 | 119 |  25 |   0 |   0 | 4.843031e+01 |      --      |    Inf 
  0.2s|     1 |     0 |   546 | 689k|   0 |  36 | 184 |  99 |  99 | 184 | 132 |  38 |   0 |   0 | 5.050842e+01 |      --      |    Inf 
  0.3s|     1 |     0 |   589 | 704k|   0 |  45 | 184 |  99 |  99 | 184 | 141 |  47 |   0 |   0 | 5.076579e+01 |      --      |    Inf 
  0.4s|     1 |     0 |   593 | 717k|   0 |  44 | 184 |  99 |  99 | 184 | 146 |  52 |   0 |   0 | 5.076579e+01 |      --      |    Inf 
  0.6s|     1 |     0 |   601 | 720k|   0 |  43 | 184 |  99 |  99 | 184 | 148 |  54 |   0 |   0 | 5.076579e+01 |      --      |    Inf 
  0.7s|     1 |     0 |   607 | 729k|   0 |  46 | 184 |  99 |  99 | 184 | 150 |  56 |   0 |   0 | 5.076579e+01 |      --      |    Inf 
  0.9s|     1 |     0 |   633 | 730k|   0 |  44 | 184 |  99 |  99 | 184 | 152 |  58 |   0 |   0 | 5.076579e+01 |      --      |    Inf 
  1.1s|     1 |     0 |   643 | 733k|   0 |  45 | 184 |  99 |  99 | 184 | 154 |  60 |   0 |   0 | 5.076837e+01 |      --      |    Inf 
  1.2s|     1 |     2 |   686 | 735k|   0 |  45 | 184 |  99 |  99 | 184 | 154 |  60 |   0 |  27 | 5.076837e+01 |      --      |    Inf 

SCIP Status        : problem is solved [infeasible]
Solving Time (sec) : 1.27
Solving Nodes      : 3
Primal Bound       : +1.00000000000000e+20 (0 solutions)
Dual Bound         : +1.00000000000000e+20
Gap                : 0.00 %

primal solution:
================

no solution available

Statistics
==========

SCIP Status        : problem is solved [infeasible]
Solving Time       :       1.27
Original Problem   :
  Problem name     : labtel
  Variables        : 227 (114 binary, 0 integer, 0 implicit integer, 113 continuous)
  Constraints      : 115 initial, 115 maximal
Presolved Problem  :
  Problem name     : t_labtel
  Variables        : 184 (76 binary, 0 integer, 0 implicit integer, 108 continuous)
  Constraints      : 99 initial, 99 maximal
Presolvers         :       Time  FixedVars   AggrVars   ChgTypes  ChgBounds   AddHoles    DelCons   ChgSides   ChgCoefs
  trivial          :       0.00          0          0          0          0          0          0          0          0
  dualfix          :       0.00          0          0          0          0          0          0          0          0
  boundshift       :       0.00          0          0          0          0          0          0          0          0
  inttobinary      :       0.00          0          0          0          0          0          0          0          0
  implics          :       0.00          0          0          0          0          0          0          0          0
  probing          :       0.02         38          0          0          9          0          0          0          0
  knapsack         :       0.00          0          0          0          0          0          0          0          0
  setppc           :       0.00          0          0          0          0          0         12          0          0
  linear           :       0.00          0          5          0         22          0          4          4         28
  root node        :          -         40          -          -         58          -          -          -          -
Constraints        :     Number  #Separate #Propagate    #EnfoLP    #EnfoPS    Cutoffs    DomReds       Cuts      Conss   Children
  integral         :          0          0          0          2          0          1          0          0          0          2
  knapsack         :          1          8        247          0          0          0          0          0          0          0
  setppc           :         24          8        247          0          0          0         54          0          0          0
  linear           :         74          8        247          0          0          2         29          0          0          0
  countsols        :          0          0          0          0          0          0          0          0          0          0
Constraint Timings :  TotalTime   Separate  Propagate     EnfoLP     EnfoPS
  integral         :       0.14       0.00       0.00       0.14       0.00
  knapsack         :       0.00       0.00       0.00       0.00       0.00
  setppc           :       0.01       0.00       0.01       0.00       0.00
  linear           :       0.02       0.00       0.02       0.00       0.00
  countsols        :       0.00       0.00       0.00       0.00       0.00
Propagators        :       Time      Calls    Cutoffs    DomReds
  rootredcost      :       0.00          0          0          0
  pseudoobj        :       0.00         13          1          0
Conflict Analysis  :       Time      Calls    Success  Conflicts   Literals    Reconvs ReconvLits   LP Iters
  propagation      :       0.00          0          0          0        0.0          0        0.0          -
  infeasible LP    :       0.00          0          0          0        0.0          0        0.0          0
  bound exceed. LP :       0.00          0          0          0        0.0          0        0.0          0
  strong branching :       0.00          0          0          0        0.0          0        0.0          0
  pseudo solution  :       0.00          0          0          0        0.0          0        0.0          -
  applied globally :          -          -          -          0        0.0          -          -          -
  applied locally  :          -          -          -          0        0.0          -          -          -
Separators         :       Time      Calls    Cutoffs    DomReds       Cuts      Conss
  cut pool         :       0.00          7          -          -          4          -    (maximal pool size: 129)
  redcost          :       0.00          9          0          0          0          0
  impliedbounds    :       0.00          8          0          0          1          0
  intobj           :       0.00          0          0          0          0          0
  gomory           :       0.03          8          0          0          6          0
  strongcg         :       0.02          8          0          0          2          0
  cmir             :       0.35          8          0          0        100          0
  flowcover        :       0.59          8          0          0         28          0
  clique           :       0.00          8          0          0          0          0
  zerohalf         :       0.00          0          0          0          0          0
  mcf              :       0.00          0          0          0          0          0
Pricers            :       Time      Calls       Vars
  problem variables:       0.00          0          0
Branching Rules    :       Time      Calls    Cutoffs    DomReds       Cuts      Conss   Children
  relpscost        :       0.14          2          1          0          0          0          2
  pscost           :       0.00          0          0          0          0          0          0
  inference        :       0.00          0          0          0          0          0          0
  mostinf          :       0.00          0          0          0          0          0          0
  leastinf         :       0.00          0          0          0          0          0          0
  fullstrong       :       0.00          0          0          0          0          0          0
  allfullstrong    :       0.00          0          0          0          0          0          0
  random           :       0.00          0          0          0          0          0          0
Primal Heuristics  :       Time      Calls      Found
  LP solutions     :       0.00          -          0
  pseudo solutions :       0.00          -          0
  oneopt           :       0.00          0          0
  coefdiving       :       0.00          0          0
  simplerounding   :       0.00          0          0
  rounding         :       0.00         10          0
  shifting         :       0.00          9          0
  intshifting      :       0.00          1          0
  fixandinfer      :       0.00          0          0
  feaspump         :       0.03          1          0
  pscostdiving     :       0.00          0          0
  fracdiving       :       0.00          0          0
  veclendiving     :       0.00          0          0
  intdiving        :       0.00          0          0
  actconsdiving    :       0.00          0          0
  objpscostdiving  :       0.00          0          0
  rootsoldiving    :       0.00          0          0
  linesearchdiving :       0.00          0          0
  guideddiving     :       0.00          0          0
  octane           :       0.00          0          0
  rens             :       0.01          0          0
  rins             :       0.00          0          0
  localbranching   :       0.00          0          0
  mutation         :       0.00          0          0
  crossover        :       0.00          0          0
  dins             :       0.00          0          0
LP                 :       Time      Calls Iterations  Iter/call   Iter/sec
  primal LP        :       0.01          0          0       0.00          -
  dual LP          :       0.05         11        372      33.82    7440.00
  barrier LP       :       0.00          0          0       0.00          -
  diving/probing LP:       0.03         26        417      16.04   13900.00
  strong branching :       0.14         28       2182      77.93   15585.71
    (at root node) :          -         27       2164      80.15          -
  conflict analysis:       0.00          0          0       0.00          -
B&B Tree           :
  number of runs   :          1
  nodes            :          3
  nodes (total)    :          3
  nodes left       :          0
  max depth        :          1
  max depth (total):          1
  backtracks       :          0 (0.0%)
  delayed cutoffs  :          0
  repropagations   :          0 (0 domain reductions, 0 cutoffs)
  avg switch length:       2.00
  switching time   :       0.01
Solution           :
  Solutions found  :          0 (0 improvements)
  Primal Bound     : infeasible
  Dual Bound       :          -
  Gap              :       0.00 %
  Root Dual Bound  : +5.07683705530353e+01
